GLPSOL--GLPK LP/MIP Solver 5.0
Parameter(s) specified in the command line:
 --cpxlp --first inputs/new_no_tr/order/triang10_1_tiers_input.lp -o solutions/new_no_tr/triang10_1_tiers_input.lp
Reading problem data from 'inputs/new_no_tr/order/triang10_1_tiers_input.lp'...
inputs/new_no_tr/order/triang10_1_tiers_input.lp:16639: warning: lower bound of variable 'm_0_0' redefined
inputs/new_no_tr/order/triang10_1_tiers_input.lp:16639: warning: upper bound of variable 'm_0_0' redefined
16286 rows, 6106 columns, 47716 non-zeros
6106 integer variables, 5760 of which are binary
22689 lines were read
GLPK Integer Optimizer 5.0
16286 rows, 6106 columns, 47716 non-zeros
6106 integer variables, 5760 of which are binary
Preprocessing...
90 hidden packing inequaliti(es) were detected
327 hidden covering inequaliti(es) were detected
2790 constraint coefficient(s) were reduced
15314 rows, 5563 columns, 44304 non-zeros
5563 integer variables, 5507 of which are binary
Scaling...
 A: min|aij| =  1.000e+00  max|aij| =  9.800e+01  ratio =  9.800e+01
GM: min|aij| =  3.672e-01  max|aij| =  2.723e+00  ratio =  7.416e+00
EQ: min|aij| =  1.348e-01  max|aij| =  1.000e+00  ratio =  7.416e+00
2N: min|aij| =  6.250e-02  max|aij| =  1.594e+00  ratio =  2.550e+01
Constructing initial basis...
Size of triangular part is 13919
Solving LP relaxation...
GLPK Simplex Optimizer 5.0
15314 rows, 5563 columns, 44304 non-zeros
      0: obj =   2.690000000e+02 inf =   2.701e+02 (292)
Perturbing LP to avoid stalling [199]...
   3674: obj =   5.497773917e+02 inf =   5.254e+01 (42) 35
   6383: obj =   6.874884657e+02 inf =   1.100e+00 (3) 26
   6491: obj =   6.898304313e+02 inf =   3.809e-06 (0) 1
*  9066: obj =   4.061320244e+02 inf =   1.884e-06 (1724) 25
* 11633: obj =   3.037128928e+02 inf =   5.705e-06 (1967) 25
* 14333: obj =   2.847007126e+02 inf =   8.375e-06 (1626) 26
* 17046: obj =   2.808833504e+02 inf =   1.040e-05 (950) 26
* 19765: obj =   2.800810065e+02 inf =   8.473e-06 (1116) 26
Removing LP perturbation [20494]...
* 20494: obj =   2.800689187e+02 inf =   4.344e-14 (0) 6
OPTIMAL LP SOLUTION FOUND
Integer optimization begins...
Long-step dual simplex will be used
+ 20494: mip =     not found yet >=              -inf        (1; 0)
+ 23795: mip =     not found yet >=   2.810000000e+02        (7; 0)
# 29430: obj =   2.954416670e+02 inf =   0.000e+00 (5127) 44 91%
# 31666: obj =   2.954416712e+02 inf =   0.000e+00 (5074) 21 100%
# 33870: obj =   2.955330199e+02 inf =   0.000e+00 (5834) 22 99%
# 35994: obj =   2.955330211e+02 inf =   0.000e+00 (5636) 21 100%
# 38154: obj =   2.955330215e+02 inf =   0.000e+00 (3470) 21 100%
# 40306: obj =   2.955330224e+02 inf =   0.000e+00 (1296) 21 99%
# 40471: obj =   2.955330128e+02 inf =   0.000e+00 (0) 2 100%
+ 40471: mip =     not found yet >=   2.810000000e+02        (8; 0)
+ 43308: mip =     not found yet >=   2.810000000e+02        (9; 0)
# 48588: obj =   2.970000055e+02 inf =   0.000e+00 (3357) 47 95%
# 51050: obj =   2.974862022e+02 inf =   0.000e+00 (4457) 22 89%
# 52834: obj =   2.976330529e+02 inf =   0.000e+00 (0) 18 73%
+ 52834: mip =     not found yet >=   2.810000000e+02        (11; 0)
Time used: 68.8 secs.  Memory used: 19.0 Mb.
# 59468: obj =   2.954416693e+02 inf =   0.000e+00 (4746) 44 92%
# 61724: obj =   2.954416733e+02 inf =   0.000e+00 (4021) 22 99%
# 63924: obj =   2.954416748e+02 inf =   0.000e+00 (4965) 22 100%
# 66083: obj =   2.954416763e+02 inf =   0.000e+00 (2776) 21 100%
# 68069: obj =   2.954416667e+02 inf =   0.000e+00 (0) 20 99%
+ 68069: mip =     not found yet >=   2.810000000e+02        (11; 1)
# 72953: obj =   2.966291654e+02 inf =   0.000e+00 (2905) 47 95%
# 74931: obj =   2.966291667e+02 inf =   0.000e+00 (0) 19 99%
+ 74931: mip =     not found yet >=   2.810000000e+02        (12; 1)
# 80001: obj =   2.970000023e+02 inf =   0.000e+00 (3040) 45 95%
# 82357: obj =   2.970000079e+02 inf =   0.000e+00 (1781) 23 100%
# 84812: obj =   2.975120048e+02 inf =   0.000e+00 (4145) 24 88%
# 86032: obj =   2.975710063e+02 inf =   0.000e+00 (0) 11 73%
+ 86032: mip =     not found yet >=   2.810000000e+02        (14; 1)
Time used: 139.9 secs.  Memory used: 19.1 Mb.
# 93063: obj =   2.953564116e+02 inf =   0.000e+00 (5567) 44 90%
# 95178: obj =   2.953564147e+02 inf =   0.000e+00 (4578) 20 100%
# 97308: obj =   2.953564164e+02 inf =   0.000e+00 (3644) 21 100%
# 99384: obj =   2.954294951e+02 inf =   0.000e+00 (3883) 21 99%
#101452: obj =   2.954294955e+02 inf =   0.000e+00 (2031) 20 100%
#103522: obj =   2.954294971e+02 inf =   0.000e+00 (5005) 20 99%
#104837: obj =   2.954294872e+02 inf =   0.000e+00 (0) 13 99%
+104837: mip =     not found yet >=   2.810000000e+02        (18; 2)
#109917: obj =   2.960000083e+02 inf =   0.000e+00 (3243) 47 95%
#112365: obj =   2.968270393e+02 inf =   0.000e+00 (3380) 22 90%
#114590: obj =   2.970900301e+02 inf =   0.000e+00 (0) 22 73%
+114590: mip =     not found yet >=   2.810000000e+02        (21; 2)
Time used: 202.4 secs.  Memory used: 19.2 Mb.
+117015: mip =     not found yet >=   2.810000000e+02        (21; 3)
#122069: obj =   2.953564128e+02 inf =   0.000e+00 (4726) 44 89%
#124248: obj =   2.953564153e+02 inf =   0.000e+00 (4443) 21 100%
#126391: obj =   2.953564180e+02 inf =   0.000e+00 (3518) 21 99%
#128538: obj =   2.953564196e+02 inf =   0.000e+00 (2527) 21 100%
#130684: obj =   2.953564210e+02 inf =   0.000e+00 (1486) 21 100%
#132857: obj =   2.953564217e+02 inf =   0.000e+00 (3362) 22 99%
#133793: obj =   2.953564103e+02 inf =   0.000e+00 (0) 9 99%
+133793: mip =     not found yet >=   2.810000000e+02        (21; 3)
#140171: obj =   2.960000093e+02 inf =   0.000e+00 (4051) 45 95%
#142619: obj =   2.972017545e+02 inf =   0.000e+00 (1494) 23 86%
#145078: obj =   2.975475331e+02 inf =   0.000e+00 (0) 24 70%
+145078: mip =     not found yet >=   2.810000000e+02        (24; 3)
Time used: 268.2 secs.  Memory used: 19.4 Mb.
+149393: mip =     not found yet >=   2.810000000e+02        (24; 4)
#154466: obj =   2.811599191e+02 inf =   0.000e+00 (165) 49 88%
#154556: obj =   2.811605040e+02 inf =   0.000e+00 (0) 1 58%
+154556: mip =     not found yet >=   2.810000000e+02        (24; 4)
+160731: mip =     not found yet >=   2.810000000e+02        (28; 5)
#165614: obj =   2.953564102e+02 inf =   0.000e+00 (3594) 42 91%
#167709: obj =   2.953564126e+02 inf =   0.000e+00 (3011) 21 100%
#169772: obj =   2.953564144e+02 inf =   0.000e+00 (5790) 20 100%
#171821: obj =   2.953564153e+02 inf =   0.000e+00 (3140) 20 100%
#173848: obj =   2.953564163e+02 inf =   0.000e+00 (3503) 20 99%
#175875: obj =   2.954416730e+02 inf =   0.000e+00 (417) 20 99%
#176278: obj =   2.954416667e+02 inf =   0.000e+00 (0) 4 100%
+176278: mip =     not found yet >=   2.810000000e+02        (28; 5)
Time used: 337.3 secs.  Memory used: 19.5 Mb.
+178855: mip =     not found yet >=   2.810000000e+02        (30; 6)
#184655: obj =   2.953564107e+02 inf =   0.000e+00 (6354) 43 92%
#186918: obj =   2.953564130e+02 inf =   0.000e+00 (5044) 22 99%
#189117: obj =   2.953564152e+02 inf =   0.000e+00 (3927) 21 100%
#191221: obj =   2.954294925e+02 inf =   0.000e+00 (4808) 21 99%
#193337: obj =   2.954294939e+02 inf =   0.000e+00 (3519) 21 100%
#195433: obj =   2.955330207e+02 inf =   0.000e+00 (2616) 20 99%
#196681: obj =   2.955330128e+02 inf =   0.000e+00 (0) 12 99%
+196681: mip =     not found yet >=   2.810000000e+02        (30; 6)
#201868: obj =   2.960000054e+02 inf =   0.000e+00 (3509) 44 95%
#204179: obj =   2.968058438e+02 inf =   0.000e+00 (3156) 22 92%
#206596: obj =   2.972885368e+02 inf =   0.000e+00 (418) 23 75%
#206722: obj =   2.972906438e+02 inf =   0.000e+00 (0) 1 42%
+206722: mip =     not found yet >=   2.810000000e+02        (32; 6)
Time used: 404.5 secs.  Memory used: 19.5 Mb.
+209877: mip =     not found yet >=   2.810000000e+02        (34; 7)
#214333: obj =   2.950884613e+02 inf =   0.000e+00 (3759) 42 90%
#216424: obj =   2.950884649e+02 inf =   0.000e+00 (4990) 20 99%
#218436: obj =   2.950884667e+02 inf =   0.000e+00 (6398) 20 100%
#220489: obj =   2.950884688e+02 inf =   0.000e+00 (5545) 20 99%
#222558: obj =   2.951067393e+02 inf =   0.000e+00 (3645) 20 100%
#224589: obj =   2.951067408e+02 inf =   0.000e+00 (1309) 20 99%
#225307: obj =   2.951067308e+02 inf =   0.000e+00 (0) 7 99%
+225307: mip =     not found yet >=   2.810000000e+02        (34; 7)
#230526: obj =   2.960000019e+02 inf =   0.000e+00 (4987) 44 95%
#232769: obj =   2.960000123e+02 inf =   0.000e+00 (4890) 21 99%
#235131: obj =   2.968483705e+02 inf =   0.000e+00 (1389) 23 83%
#236846: obj =   2.969878020e+02 inf =   0.000e+00 (0) 16 70%
+236846: mip =     not found yet >=   2.810000000e+02        (36; 7)
Time used: 472.3 secs.  Memory used: 19.6 Mb.
#241047: obj =   2.969999992e+02 inf =   0.000e+00 (5038) 41 95%
#243122: obj =   2.970000011e+02 inf =   0.000e+00 (4026) 20 100%
#245224: obj =   2.970000041e+02 inf =   0.000e+00 (2944) 21 100%
#247354: obj =   2.970000072e+02 inf =   0.000e+00 (3392) 20 99%
#249563: obj =   2.970000102e+02 inf =   0.000e+00 (860) 22 99%
#249800: obj =   2.970000000e+02 inf =   0.000e+00 (0) 2 99%
+249800: mip =     not found yet >=   2.810000000e+02        (37; 7)
#256086: obj =   2.950153869e+02 inf =   0.000e+00 (4641) 43 91%
#258235: obj =   2.950153897e+02 inf =   0.000e+00 (5024) 21 99%
#260297: obj =   2.950153911e+02 inf =   0.000e+00 (4060) 20 100%
#262361: obj =   2.950153924e+02 inf =   0.000e+00 (4238) 20 99%
#264409: obj =   2.950153937e+02 inf =   0.000e+00 (4176) 20 99%
#266330: obj =   2.950153846e+02 inf =   0.000e+00 (0) 19 99%
+266330: mip =     not found yet >=   2.810000000e+02        (36; 8)
Time used: 540.8 secs.  Memory used: 19.7 Mb.
+269077: mip =     not found yet >=   2.810000000e+02        (39; 9)
#274441: obj =   2.950884624e+02 inf =   0.000e+00 (4411) 43 89%
#276581: obj =   2.950884659e+02 inf =   0.000e+00 (5530) 21 100%
#278665: obj =   2.950884678e+02 inf =   0.000e+00 (3548) 20 99%
#280772: obj =   2.950884694e+02 inf =   0.000e+00 (1479) 21 99%
#282890: obj =   2.950884712e+02 inf =   0.000e+00 (4115) 21 99%
#284182: obj =   2.950884615e+02 inf =   0.000e+00 (0) 12 99%
+284182: mip =     not found yet >=   2.810000000e+02        (40; 9)
#290099: obj =   2.966057054e+02 inf =   0.000e+00 (4594) 46 93%
#292497: obj =   2.973707562e+02 inf =   0.000e+00 (1569) 23 79%
#293506: obj =   2.974191109e+02 inf =   0.000e+00 (0) 10 60%
+293506: mip =     not found yet >=   2.810000000e+02        (43; 9)
Time used: 603.0 secs.  Memory used: 19.8 Mb.
+297263: mip =     not found yet >=   2.810000000e+02        (44; 10)
#302325: obj =   2.953564116e+02 inf =   0.000e+00 (4256) 44 91%
#304484: obj =   2.953564170e+02 inf =   0.000e+00 (3996) 21 99%
#306589: obj =   2.953564188e+02 inf =   0.000e+00 (4403) 21 99%
#308731: obj =   2.953564204e+02 inf =   0.000e+00 (2371) 21 99%
#310920: obj =   2.953564227e+02 inf =   0.000e+00 (724) 22 99%
#311263: obj =   2.953564103e+02 inf =   0.000e+00 (0) 3 97%
+311263: mip =     not found yet >=   2.810000000e+02        (44; 10)
#316408: obj =   2.963064086e+02 inf =   0.000e+00 (2240) 45 95%
#318655: obj =   2.963064085e+02 inf =   0.000e+00 (4618) 22 100%
#320815: obj =   2.963064102e+02 inf =   0.000e+00 (655) 22 99%
#321218: obj =   2.963064103e+02 inf =   0.000e+00 (0) 4 100%
+321218: mip =     not found yet >=   2.810000000e+02        (46; 10)
#326164: obj =   2.970000039e+02 inf =   0.000e+00 (5202) 46 95%
#328536: obj =   2.972363478e+02 inf =   0.000e+00 (3058) 22 94%
#330707: obj =   2.975132873e+02 inf =   0.000e+00 (0) 22 73%
+330707: mip =     not found yet >=   2.810000000e+02        (48; 10)
Time used: 680.7 secs.  Memory used: 19.9 Mb.
#334963: obj =   2.979999996e+02 inf =   0.000e+00 (5538) 41 95%
#337091: obj =   2.980000014e+02 inf =   0.000e+00 (4408) 21 100%
#339267: obj =   2.980000036e+02 inf =   0.000e+00 (4354) 21 100%
#341394: obj =   2.980000039e+02 inf =   0.000e+00 (1532) 21 100%
#342243: obj =   2.980000000e+02 inf =   0.000e+00 (0) 8 99%
+342243: mip =     not found yet >=   2.810000000e+02        (49; 10)
#349148: obj =   2.953564105e+02 inf =   0.000e+00 (3711) 42 91%
#351274: obj =   2.953564140e+02 inf =   0.000e+00 (4960) 21 99%
#353401: obj =   2.953564160e+02 inf =   0.000e+00 (5340) 21 99%
#355478: obj =   2.954294944e+02 inf =   0.000e+00 (6195) 20 99%
#357530: obj =   2.954294957e+02 inf =   0.000e+00 (2192) 20 99%
#359227: obj =   2.954294872e+02 inf =   0.000e+00 (0) 17 99%
+359227: mip =     not found yet >=   2.810000000e+02        (48; 11)
Time used: 746.5 secs.  Memory used: 19.9 Mb.
#364379: obj =   2.960000081e+02 inf =   0.000e+00 (3797) 45 95%
#366775: obj =   2.969834730e+02 inf =   0.000e+00 (1645) 23 85%
#368531: obj =   2.971810776e+02 inf =   0.000e+00 (0) 17 71%
+368531: mip =     not found yet >=   2.810000000e+02        (50; 11)
+371747: mip =     not found yet >=   2.810000000e+02        (52; 12)
#376865: obj =   2.954294871e+02 inf =   0.000e+00 (5895) 43 91%
#378996: obj =   2.954294895e+02 inf =   0.000e+00 (4221) 20 99%
#381115: obj =   2.954294918e+02 inf =   0.000e+00 (6138) 21 99%
#383216: obj =   2.954294932e+02 inf =   0.000e+00 (2204) 21 99%
#385332: obj =   2.954294943e+02 inf =   0.000e+00 (2082) 21 99%
#387443: obj =   2.955330210e+02 inf =   0.000e+00 (215) 20 99%
#387529: obj =   2.955330128e+02 inf =   0.000e+00 (0) 1 100%
+387529: mip =     not found yet >=   2.810000000e+02        (52; 12)
Time used: 808.7 secs.  Memory used: 20.0 Mb.
#392358: obj =   2.962333323e+02 inf =   0.000e+00 (4772) 46 95%
#394499: obj =   2.962333333e+02 inf =   0.000e+00 (5057) 21 99%
#396655: obj =   2.962333337e+02 inf =   0.000e+00 (1696) 21 99%
#398795: obj =   2.962333333e+02 inf =   0.000e+00 (3124) 21 100%
#399602: obj =   2.962333333e+02 inf =   0.000e+00 (0) 8 99%
+399602: mip =     not found yet >=   2.810000000e+02        (53; 12)
#404522: obj =   2.970000036e+02 inf =   0.000e+00 (5239) 45 95%
#406785: obj =   2.970000357e+02 inf =   0.000e+00 (4438) 21 99%
#409206: obj =   2.977928110e+02 inf =   0.000e+00 (492) 24 80%
#409679: obj =   2.978212672e+02 inf =   0.000e+00 (0) 4 68%
+409679: mip =     not found yet >=   2.810000000e+02        (55; 12)
+412074: mip =     not found yet >=   2.810000000e+02        (55; 13)
#416629: obj =   2.953564112e+02 inf =   0.000e+00 (5200) 44 91%
#418857: obj =   2.953564149e+02 inf =   0.000e+00 (5699) 21 99%
#420923: obj =   2.953564164e+02 inf =   0.000e+00 (4206) 21 99%
#422990: obj =   2.953564172e+02 inf =   0.000e+00 (5592) 20 99%
#425047: obj =   2.953564178e+02 inf =   0.000e+00 (4694) 20 99%
#427139: obj =   2.954416757e+02 inf =   0.000e+00 (1399) 21 99%
#427541: obj =   2.954416667e+02 inf =   0.000e+00 (0) 4 99%
+427541: mip =     not found yet >=   2.810000000e+02        (55; 13)
Time used: 898.1 secs.  Memory used: 20.2 Mb.
#434173: obj =   5.240642987e+02 inf =   0.000e+00 (5124) 41 84%
#436409: obj =   5.495729310e+02 inf =   0.000e+00 (3204) 21 99%
#438569: obj =   5.542395993e+02 inf =   0.000e+00 (2514) 21 100%
#440658: obj =   5.545894822e+02 inf =   0.000e+00 (2512) 19 99%
#442453: obj =   5.675221040e+02 inf =   0.000e+00 (1554) 18 99%
+442453: mip =     not found yet >=   2.810000000e+02        (56; 15)
#446976: obj =   2.950153861e+02 inf =   0.000e+00 (4845) 43 95%
#449099: obj =   2.950153876e+02 inf =   0.000e+00 (5355) 21 99%
#451166: obj =   2.950153892e+02 inf =   0.000e+00 (4304) 20 100%
#453296: obj =   2.950884671e+02 inf =   0.000e+00 (2625) 21 99%
#455388: obj =   2.950884675e+02 inf =   0.000e+00 (2987) 21 99%
#457491: obj =   2.950884685e+02 inf =   0.000e+00 (1239) 20 99%
#458253: obj =   2.951067308e+02 inf =   0.000e+00 (0) 8 99%
+458253: mip =     not found yet >=   2.810000000e+02        (56; 15)
Time used: 968.6 secs.  Memory used: 20.2 Mb.
#464427: obj =   2.963246792e+02 inf =   0.000e+00 (2797) 45 95%
#465712: obj =   2.963246795e+02 inf =   0.000e+00 (0) 12 99%
+465712: mip =     not found yet >=   2.810000000e+02        (58; 15)
#470861: obj =   2.970000040e+02 inf =   0.000e+00 (4842) 45 95%
#473088: obj =   2.970000137e+02 inf =   0.000e+00 (3324) 21 99%
#475382: obj =   2.977594518e+02 inf =   0.000e+00 (1374) 22 78%
#476718: obj =   2.978623291e+02 inf =   0.000e+00 (0) 13 69%
+476718: mip =     not found yet >=   2.810000000e+02        (60; 15)
#480990: obj =   2.979999980e+02 inf =   0.000e+00 (5437) 42 95%
#483112: obj =   2.980000015e+02 inf =   0.000e+00 (2816) 20 100%
#485292: obj =   2.980000040e+02 inf =   0.000e+00 (1354) 22 100%
#487286: obj =   2.980000000e+02 inf =   0.000e+00 (0) 19 99%
+487286: mip =     not found yet >=   2.810000000e+02        (61; 15)
Time used: 1032.8 secs.  Memory used: 20.3 Mb.
#492270: obj =   2.950153857e+02 inf =   0.000e+00 (4546) 44 90%
#494528: obj =   2.950153894e+02 inf =   0.000e+00 (4699) 22 100%
#496590: obj =   2.950153924e+02 inf =   0.000e+00 (5760) 20 99%
#498649: obj =   2.950153938e+02 inf =   0.000e+00 (1341) 20 99%
#500695: obj =   2.950153947e+02 inf =   0.000e+00 (1036) 20 100%
#502822: obj =   2.950153939e+02 inf =   0.000e+00 (515) 21 99%
#503433: obj =   2.950153846e+02 inf =   0.000e+00 (0) 6 99%
+503433: mip =     not found yet >=   2.810000000e+02        (60; 16)
#508091: obj =   2.959999993e+02 inf =   0.000e+00 (6010) 43 95%
#510277: obj =   2.960000006e+02 inf =   0.000e+00 (5373) 21 99%
#512386: obj =   2.960000008e+02 inf =   0.000e+00 (4144) 21 99%
#514492: obj =   2.962028870e+02 inf =   0.000e+00 (1019) 21 99%
#516067: obj =   2.962028846e+02 inf =   0.000e+00 (0) 15 99%
+516067: mip =     not found yet >=   2.810000000e+02        (61; 16)
Time used: 1099.1 secs.  Memory used: 20.3 Mb.
+518779: mip =     not found yet >=   2.810000000e+02        (64; 17)
#523815: obj =   2.950153865e+02 inf =   0.000e+00 (5267) 43 95%
#525968: obj =   2.950153886e+02 inf =   0.000e+00 (6000) 21 99%
#528069: obj =   2.950153905e+02 inf =   0.000e+00 (3798) 21 100%
#530166: obj =   2.950884682e+02 inf =   0.000e+00 (1735) 20 99%
#532192: obj =   2.950884697e+02 inf =   0.000e+00 (244) 20 99%
#532265: obj =   2.950884615e+02 inf =   0.000e+00 (0) 1 100%
+532265: mip =     not found yet >=   2.810000000e+02        (64; 17)
#538657: obj =   2.950153868e+02 inf =   0.000e+00 (3259) 42 92%
#540824: obj =   2.950153891e+02 inf =   0.000e+00 (2888) 21 99%
#542856: obj =   2.950153904e+02 inf =   0.000e+00 (3240) 20 99%
#544880: obj =   2.950153913e+02 inf =   0.000e+00 (4250) 20 100%
#546977: obj =   2.950153919e+02 inf =   0.000e+00 (2878) 21 100%
#548763: obj =   2.950153846e+02 inf =   0.000e+00 (0) 17 99%
+548763: mip =     not found yet >=   2.810000000e+02        (65; 19)
Time used: 1173.8 secs.  Memory used: 20.4 Mb.
#553347: obj =   2.959999986e+02 inf =   0.000e+00 (5659) 43 95%
#555520: obj =   2.960000001e+02 inf =   0.000e+00 (2744) 22 99%
#557704: obj =   2.960000010e+02 inf =   0.000e+00 (5195) 21 100%
#559830: obj =   2.960000015e+02 inf =   0.000e+00 (649) 21 100%
#560532: obj =   2.960000000e+02 inf =   0.000e+00 (0) 7 99%
+560532: mip =     not found yet >=   2.810000000e+02        (67; 19)
#565278: obj =   2.965256398e+02 inf =   0.000e+00 (5749) 46 95%
#567482: obj =   2.965256409e+02 inf =   0.000e+00 (2111) 21 99%
#569654: obj =   2.965256410e+02 inf =   0.000e+00 (0) 22 99%
+569654: mip =     not found yet >=   2.810000000e+02        (67; 19)
+572547: mip =     not found yet >=   2.810000000e+02        (69; 20)
#577277: obj =   2.950153844e+02 inf =   0.000e+00 (4692) 44 93%
#579430: obj =   2.950153864e+02 inf =   0.000e+00 (4759) 21 99%
#581621: obj =   2.950153890e+02 inf =   0.000e+00 (4142) 21 100%
#583774: obj =   2.950153902e+02 inf =   0.000e+00 (6165) 21 99%
#585859: obj =   2.950153917e+02 inf =   0.000e+00 (6237) 21 100%
#587959: obj =   2.950153921e+02 inf =   0.000e+00 (2554) 20 99%
#589184: obj =   2.950153846e+02 inf =   0.000e+00 (0) 13 99%
+589184: mip =     not found yet >=   2.810000000e+02        (68; 21)
Time used: 1264.2 secs.  Memory used: 20.5 Mb.
+591890: mip =     not found yet >=   2.810000000e+02        (71; 22)
+598095: mip =     not found yet >=   2.810000000e+02        (73; 22)
#603295: obj =   2.959592955e+02 inf =   0.000e+00 (4392) 44 87%
#605433: obj =   2.959592978e+02 inf =   0.000e+00 (4679) 21 100%
#607544: obj =   2.959593001e+02 inf =   0.000e+00 (3534) 20 100%
#609638: obj =   2.959593012e+02 inf =   0.000e+00 (4366) 21 100%
#611751: obj =   2.959593023e+02 inf =   0.000e+00 (6210) 21 100%
#612687: obj =   2.959592949e+02 inf =   0.000e+00 (0) 9 99%
+612687: mip =     not found yet >=   2.810000000e+02        (75; 22)
#618731: obj =   2.955330143e+02 inf =   0.000e+00 (5142) 44 93%
#620908: obj =   2.955330167e+02 inf =   0.000e+00 (4448) 21 99%
#623026: obj =   2.955330182e+02 inf =   0.000e+00 (3708) 21 99%
#625168: obj =   2.955330199e+02 inf =   0.000e+00 (2086) 21 99%
#627324: obj =   2.955330128e+02 inf =   0.000e+00 (0) 21 99%
+627324: mip =     not found yet >=   2.810000000e+02        (76; 23)
Time used: 1347.4 secs.  Memory used: 20.7 Mb.
#632160: obj =   2.959999989e+02 inf =   0.000e+00 (5435) 45 95%
#634357: obj =   2.961419866e+02 inf =   0.000e+00 (4702) 22 99%
#636474: obj =   2.961419875e+02 inf =   0.000e+00 (4109) 20 99%
#638598: obj =   2.961419877e+02 inf =   0.000e+00 (6352) 21 100%
#640723: obj =   2.962333342e+02 inf =   0.000e+00 (1973) 21 99%
#641998: obj =   2.962333333e+02 inf =   0.000e+00 (0) 13 99%
+641998: mip =     not found yet >=   2.810000000e+02        (77; 23)
#647082: obj =   2.970000065e+02 inf =   0.000e+00 (4522) 45 95%
#649440: obj =   2.974432944e+02 inf =   0.000e+00 (3692) 22 94%
#651324: obj =   2.977005712e+02 inf =   0.000e+00 (0) 18 69%
+651324: mip =     not found yet >=   2.810000000e+02        (79; 23)
#657941: obj =   2.954416681e+02 inf =   0.000e+00 (4831) 44 89%
#660152: obj =   2.954416707e+02 inf =   0.000e+00 (5292) 21 99%
#662310: obj =   2.954416729e+02 inf =   0.000e+00 (5879) 22 99%
#664376: obj =   2.954416741e+02 inf =   0.000e+00 (4084) 20 99%
#666513: obj =   2.954416755e+02 inf =   0.000e+00 (3744) 21 99%
#668054: obj =   2.954416667e+02 inf =   0.000e+00 (0) 15 99%
+668054: mip =     not found yet >=   2.810000000e+02        (79; 24)
Time used: 1438.3 secs.  Memory used: 20.8 Mb.
#672822: obj =   2.966291655e+02 inf =   0.000e+00 (3551) 45 95%
#674993: obj =   2.966291662e+02 inf =   0.000e+00 (4734) 21 99%
#677187: obj =   2.966291660e+02 inf =   0.000e+00 (3689) 22 99%
#679355: obj =   2.966291670e+02 inf =   0.000e+00 (1219) 21 99%
#679777: obj =   2.966291667e+02 inf =   0.000e+00 (0) 4 99%
+679777: mip =     not found yet >=   2.810000000e+02        (80; 24)
#684448: obj =   2.969999986e+02 inf =   0.000e+00 (4893) 44 95%
#686672: obj =   2.970000006e+02 inf =   0.000e+00 (5499) 22 99%
#688827: obj =   2.970000032e+02 inf =   0.000e+00 (3630) 21 100%
#691017: obj =   2.973294910e+02 inf =   0.000e+00 (1498) 22 99%
#692529: obj =   2.973294872e+02 inf =   0.000e+00 (0) 15 99%
+692529: mip =     not found yet >=   2.810000000e+02        (81; 24)
#697372: obj =   2.980000022e+02 inf =   0.000e+00 (3143) 44 95%
#699624: obj =   2.980000063e+02 inf =   0.000e+00 (4184) 22 100%
#701905: obj =   2.980000125e+02 inf =   0.000e+00 (1451) 22 100%
#703265: obj =   2.982299158e+02 inf =   0.000e+00 (0) 13 76%
+703265: mip =     not found yet >=   2.810000000e+02        (83; 24)
Time used: 1516.5 secs.  Memory used: 20.8 Mb.
+707958: mip =     not found yet >=   2.810000000e+02        (85; 25)
#714269: obj =   2.955330140e+02 inf =   0.000e+00 (3633) 43 90%
#716437: obj =   2.955330154e+02 inf =   0.000e+00 (5045) 21 99%
#718569: obj =   2.955330175e+02 inf =   0.000e+00 (4781) 21 99%
#720648: obj =   2.955330194e+02 inf =   0.000e+00 (2896) 20 100%
#722724: obj =   2.955330195e+02 inf =   0.000e+00 (3822) 20 99%
#724162: obj =   2.955330128e+02 inf =   0.000e+00 (0) 15 99%
+724162: mip =     not found yet >=   2.810000000e+02        (86; 25)
#729297: obj =   2.960000029e+02 inf =   0.000e+00 (4384) 45 95%
#731621: obj =   2.960000130e+02 inf =   0.000e+00 (4018) 22 100%
#734045: obj =   2.970312489e+02 inf =   0.000e+00 (3016) 22 83%
#736073: obj =   2.972104504e+02 inf =   0.000e+00 (0) 20 69%
+736073: mip =     not found yet >=   2.810000000e+02        (88; 25)
Time used: 1587.5 secs.  Memory used: 20.9 Mb.
+738392: mip =     not found yet >=   2.810000000e+02        (88; 26)
#745920: obj =   2.810000014e+02 inf =   0.000e+00 (3282) 47 95%
#747292: obj =   2.811777441e+02 inf =   0.000e+00 (0) 13 67%
+747292: mip =     not found yet >=   2.810000000e+02        (90; 27)
#752937: obj =   2.909537541e+02 inf =   0.000e+00 (4718) 43 93%
#755057: obj =   2.956243609e+02 inf =   0.000e+00 (5540) 20 100%
#757127: obj =   2.956243632e+02 inf =   0.000e+00 (3193) 21 100%
#759244: obj =   2.956243641e+02 inf =   0.000e+00 (4155) 20 99%
#761400: obj =   2.956243654e+02 inf =   0.000e+00 (4265) 21 99%
#763505: obj =   2.956243669e+02 inf =   0.000e+00 (418) 21 99%
#764137: obj =   2.956243590e+02 inf =   0.000e+00 (0) 6 99%
+764137: mip =     not found yet >=   2.810000000e+02        (91; 27)
Time used: 1648.8 secs.  Memory used: 21.0 Mb.
#768874: obj =   2.967205120e+02 inf =   0.000e+00 (2301) 45 95%
#771065: obj =   2.968118572e+02 inf =   0.000e+00 (1265) 21 99%
#772139: obj =   2.968118590e+02 inf =   0.000e+00 (0) 11 99%
+772139: mip =     not found yet >=   2.810000000e+02        (92; 27)
#777559: obj =   2.970000159e+02 inf =   0.000e+00 (3515) 45 95%
#779989: obj =   2.977449239e+02 inf =   0.000e+00 (1655) 23 79%
#780880: obj =   2.977731600e+02 inf =   0.000e+00 (0) 9 71%
+780880: mip =     not found yet >=   2.810000000e+02        (94; 27)
#785105: obj =   3.254662917e+02 inf =   0.000e+00 (4709) 39 73%
#787512: obj =   3.273316647e+02 inf =   0.000e+00 (3745) 22 98%
#790007: obj =   3.310352022e+02 inf =   0.000e+00 (3588) 24 99%
#792254: obj =   3.310352225e+02 inf =   0.000e+00 (3641) 21 99%
#794402: obj =   3.331649474e+02 inf =   0.000e+00 (3884) 21 99%
#796409: obj =   3.500781977e+02 inf =   5.995e-14 (4194) 19 99%
+796409: mip =     not found yet >=   2.810000000e+02        (94; 28)
Time used: 1719.5 secs.  Memory used: 21.2 Mb.
#802265: obj =   2.951067266e+02 inf =   0.000e+00 (3811) 41 83%
#804394: obj =   2.951067356e+02 inf =   0.000e+00 (4933) 20 100%
#806470: obj =   2.951067390e+02 inf =   0.000e+00 (4662) 20 100%
#808620: obj =   2.951067398e+02 inf =   0.000e+00 (5382) 22 100%
#810751: obj =   2.951067403e+02 inf =   0.000e+00 (1804) 20 100%
#812156: obj =   2.951067308e+02 inf =   0.000e+00 (0) 14 99%
+812156: mip =     not found yet >=   2.810000000e+02        (95; 28)
